p tw 117 21061 2 
1 3 
1 4 
1 5 
1 6 
1 7 
1 8 
1 9 
1 10 
1 11 
1 12 
1 13 
1 14 
1 15 
1 16 
1 17 
1 18 
1 19 
1 20 
1 21 
1 22 
1 23 
1 24 
1 25 
1 31 
1 40 
1 50 
1 62 
1 71 
1 79 
1 95 
1 99 
1 103 
1 107 
1 108 
1 109 
2 3 
2 4 
2 5 
2 6 
2 7 
2 8 
2 9 
2 10 
2 11 
2 12 
2 13 
2 14 
2 18 
2 26 
2 27 
2 28 
2 29 
2 30 
2 31 
2 32 
2 33 
2 34 
2 35 
2 36 
2 45 
2 52 
2 61 
2 76 
2 81 
2 89 
2 106 
2 107 
2 113 
2 114 
2 115 
3 4 
3 5 
3 6 
3 7 
3 8 
3 9 
3 10 
3 11 
3 12 
3 13 
3 15 
3 24 
3 26 
3 36 
3 37 
3 38 
3 39 
3 40 
3 41 
3 42 
3 43 
3 44 
3 45 
3 46 
3 55 
3 64 
3 72 
3 74 
3 83 
3 86 
3 100 
3 104 
3 108 
3 115 
4 5 
4 6 
4 7 
4 8 
4 9 
4 10 
4 11 
4 12 
4 13 
4 16 
4 23 
4 27 
4 36 
4 37 
4 46 
4 47 
4 48 
4 49 
4 50 
4 51 
4 52 
4 53 
4 54 
4 55 
4 59 
4 69 
4 78 
4 84 
4 90 
4 99 
4 105 
4 111 
4 113 
5 6 
5 7 
5 8 
5 9 
5 10 
5 11 
5 12 
5 13 
5 17 
5 25 
5 27 
5 30 
5 37 
5 38 
5 56 
5 57 
5 58 
5 59 
5 60 
5 61 
5 62 
5 63 
5 64 
5 71 
5 77 
5 85 
5 92 
5 97 
5 101 
5 111 
5 115 
5 116 
6 7 
6 8 
6 9 
6 10 
6 11 
6 12 
6 13 
6 18 
6 25 
6 28 
6 33 
6 38 
6 44 
6 47 
6 55 
6 62 
6 65 
6 66 
6 67 
6 68 
6 69 
6 70 
6 71 
6 72 
6 75 
6 84 
6 87 
6 94 
6 110 
6 114 
6 117 
7 8 
7 9 
7 10 
7 11 
7 12 
7 13 
7 14 
7 19 
7 29 
7 39 
7 40 
7 48 
7 49 
7 56 
7 57 
7 65 
7 66 
7 73 
7 74 
7 75 
7 76 
7 77 
7 78 
7 79 
7 80 
7 81 
7 82 
7 83 
7 84 
7 85 
8 9 
8 10 
8 11 
8 12 
8 13 
8 15 
8 20 
8 30 
8 31 
8 41 
8 50 
8 51 
8 58 
8 59 
8 67 
8 68 
8 73 
8 74 
8 80 
8 81 
8 86 
8 87 
8 88 
8 89 
8 90 
8 91 
8 92 
8 93 
8 94 
9 10 
9 11 
9 12 
9 13 
9 17 
9 22 
9 32 
9 35 
9 41 
9 42 
9 47 
9 52 
9 57 
9 69 
9 73 
9 75 
9 82 
9 86 
9 91 
9 95 
9 96 
9 97 
9 100 
9 102 
9 107 
9 110 
9 111 
9 112 
10 11 
10 12 
10 13 
10 19 
10 21 
10 32 
10 34 
10 43 
10 46 
10 51 
10 53 
10 60 
10 63 
10 66 
10 68 
10 76 
10 79 
10 87 
10 89 
10 96 
10 98 
10 99 
10 100 
10 101 
10 104 
10 110 
10 116 
11 12 
11 13 
11 20 
11 21 
11 29 
11 33 
11 42 
11 45 
11 48 
11 49 
11 61 
11 64 
11 67 
11 70 
11 77 
11 90 
11 91 
11 98 
11 102 
11 103 
11 104 
11 105 
11 109 
11 112 
11 116 
11 117 
12 13 
12 16 
12 23 
12 34 
12 35 
12 39 
12 44 
12 54 
12 58 
12 60 
12 70 
12 72 
12 78 
12 83 
12 85 
12 88 
12 92 
12 93 
12 95 
12 96 
12 98 
12 102 
12 106 
12 109 
12 114 
13 22 
13 24 
13 26 
13 28 
13 43 
13 53 
13 54 
13 56 
13 63 
13 65 
13 80 
13 82 
13 88 
13 93 
13 94 
13 97 
13 101 
13 103 
13 105 
13 106 
13 108 
13 112 
13 113 
13 117 
14 15 
14 16 
14 17 
14 18 
14 19 
14 20 
14 21 
14 22 
14 23 
14 24 
14 25 
14 26 
14 27 
14 28 
14 29 
14 30 
14 31 
14 32 
14 33 
14 34 
14 35 
14 36 
14 39 
14 48 
14 56 
14 65 
14 73 
14 74 
14 75 
14 76 
14 77 
14 78 
14 79 
15 16 
15 17 
15 18 
15 19 
15 20 
15 21 
15 22 
15 23 
15 24 
15 25 
15 26 
15 30 
15 37 
15 38 
15 39 
15 40 
15 41 
15 42 
15 43 
15 44 
15 45 
15 46 
15 50 
15 58 
15 67 
15 73 
15 80 
15 86 
15 87 
15 88 
15 89 
15 90 
16 17 
16 18 
16 19 
16 20 
16 21 
16 22 
16 23 
16 24 
16 25 
16 27 
16 34 
16 37 
16 44 
16 47 
16 48 
16 49 
16 50 
16 51 
16 52 
16 53 
16 54 
16 55 
16 60 
16 70 
16 78 
16 83 
16 88 
16 92 
16 95 
16 102 
16 106 
17 18 
17 19 
17 20 
17 21 
17 22 
17 23 
17 24 
17 25 
17 27 
17 32 
17 38 
17 42 
17 52 
17 56 
17 57 
17 58 
17 59 
17 60 
17 61 
17 62 
17 63 
17 64 
17 69 
17 75 
17 82 
17 86 
17 91 
17 95 
17 96 
17 97 
18 19 
18 20 
18 21 
18 22 
18 23 
18 24 
18 25 
18 28 
18 38 
18 45 
18 47 
18 52 
18 61 
18 65 
18 66 
18 67 
18 68 
18 69 
18 70 
18 71 
18 72 
18 76 
18 81 
18 89 
18 106 
18 107 
18 113 
18 114 
18 115 
19 20 
19 21 
19 22 
19 23 
19 24 
19 25 
19 29 
19 34 
19 40 
19 46 
19 49 
19 53 
19 57 
19 63 
19 66 
19 68 
19 79 
19 80 
19 81 
19 82 
19 83 
19 84 
19 85 
19 89 
19 96 
19 104 
19 110 
19 116 
20 21 
20 22 
20 23 
20 24 
20 25 
20 31 
20 33 
20 41 
20 42 
20 49 
20 51 
20 59 
20 61 
20 67 
20 68 
20 74 
20 77 
20 81 
20 91 
20 92 
20 93 
20 94 
20 98 
20 102 
20 103 
20 104 
20 105 
21 22 
21 23 
21 24 
21 25 
21 29 
21 32 
21 43 
21 45 
21 48 
21 51 
21 60 
21 64 
21 66 
21 70 
21 76 
21 87 
21 90 
21 91 
21 98 
21 99 
21 100 
21 101 
21 109 
21 112 
21 116 
21 117 
22 23 
22 24 
22 25 
22 28 
22 35 
22 41 
22 43 
22 47 
22 53 
22 56 
22 57 
22 73 
22 80 
22 93 
22 97 
22 100 
22 102 
22 105 
22 106 
22 107 
22 108 
22 110 
22 111 
22 112 
22 117 
23 24 
23 25 
23 35 
23 36 
23 39 
23 46 
23 54 
23 58 
23 59 
23 69 
23 72 
23 78 
23 84 
23 85 
23 90 
23 93 
23 96 
23 98 
23 99 
23 105 
23 109 
23 111 
23 113 
23 114 
24 25 
24 26 
24 36 
24 54 
24 55 
24 63 
24 64 
24 65 
24 72 
24 74 
24 82 
24 83 
24 86 
24 88 
24 94 
24 100 
24 101 
24 103 
24 104 
24 108 
24 112 
24 113 
24 115 
25 30 
25 33 
25 37 
25 44 
25 55 
25 62 
25 71 
25 75 
25 77 
25 84 
25 85 
25 87 
25 92 
25 94 
25 97 
25 101 
25 110 
25 111 
25 114 
25 115 
25 116 
25 117 
26 27 
26 28 
26 29 
26 30 
26 31 
26 32 
26 33 
26 34 
26 35 
26 36 
26 37 
26 38 
26 39 
26 40 
26 41 
26 42 
26 43 
26 44 
26 45 
26 46 
26 54 
26 63 
26 65 
26 82 
26 88 
26 94 
26 101 
26 103 
26 112 
26 113 
27 28 
27 29 
27 30 
27 31 
27 32 
27 33 
27 34 
27 35 
27 36 
27 37 
27 38 
27 47 
27 48 
27 49 
27 50 
27 51 
27 52 
27 53 
27 54 
27 55 
27 56 
27 57 
27 58 
27 59 
27 60 
27 61 
27 62 
27 63 
27 64 
28 29 
28 30 
28 31 
28 32 
28 33 
28 34 
28 35 
28 36 
28 38 
28 43 
28 47 
28 53 
28 56 
28 65 
28 66 
28 67 
28 68 
28 69 
28 70 
28 71 
28 72 
28 80 
28 93 
28 97 
28 105 
28 106 
28 108 
28 117 
29 30 
29 31 
29 32 
29 33 
29 34 
29 35 
29 36 
29 40 
29 45 
29 48 
29 49 
29 57 
29 64 
29 66 
29 70 
29 80 
29 81 
29 82 
29 83 
29 84 
29 85 
29 90 
29 91 
29 109 
29 112 
29 116 
29 117 
30 31 
30 32 
30 33 
30 34 
30 35 
30 36 
30 37 
30 50 
30 58 
30 67 
30 71 
30 73 
30 77 
30 80 
30 85 
30 86 
30 87 
30 88 
30 89 
30 90 
30 92 
30 97 
30 101 
30 111 
30 115 
30 116 
31 32 
31 33 
31 34 
31 35 
31 36 
31 40 
31 41 
31 50 
31 51 
31 59 
31 62 
31 68 
31 71 
31 74 
31 79 
31 81 
31 91 
31 92 
31 93 
31 94 
31 95 
31 99 
31 103 
31 107 
31 108 
31 109 
32 33 
32 34 
32 35 
32 36 
32 42 
32 43 
32 51 
32 52 
32 60 
32 66 
32 69 
32 75 
32 76 
32 82 
32 86 
32 87 
32 91 
32 95 
32 96 
32 97 
32 98 
32 99 
32 100 
32 101 
33 34 
33 35 
33 36 
33 42 
33 44 
33 49 
33 55 
33 61 
33 62 
33 67 
33 75 
33 77 
33 84 
33 87 
33 94 
33 98 
33 102 
33 103 
33 104 
33 105 
33 110 
33 114 
33 117 
34 35 
34 36 
34 44 
34 46 
34 53 
34 60 
34 63 
34 68 
34 70 
34 78 
34 79 
34 83 
34 88 
34 89 
34 92 
34 95 
34 96 
34 102 
34 104 
34 106 
34 110 
34 116 
35 36 
35 39 
35 41 
35 47 
35 54 
35 57 
35 58 
35 72 
35 73 
35 85 
35 93 
35 96 
35 98 
35 100 
35 102 
35 107 
35 109 
35 110 
35 111 
35 112 
35 114 
36 46 
36 55 
36 59 
36 64 
36 69 
36 72 
36 74 
36 78 
36 83 
36 84 
36 86 
36 90 
36 99 
36 100 
36 104 
36 105 
36 108 
36 111 
36 113 
36 115 
37 38 
37 39 
37 40 
37 41 
37 42 
37 43 
37 44 
37 45 
37 46 
37 47 
37 48 
37 49 
37 50 
37 51 
37 52 
37 53 
37 54 
37 55 
37 71 
37 77 
37 85 
37 92 
37 97 
37 101 
37 111 
37 115 
37 116 
38 39 
38 40 
38 41 
38 42 
38 43 
38 44 
38 45 
38 46 
38 47 
38 56 
38 57 
38 58 
38 59 
38 60 
38 61 
38 62 
38 63 
38 64 
38 65 
38 66 
38 67 
38 68 
38 69 
38 70 
38 71 
38 72 
39 40 
39 41 
39 42 
39 43 
39 44 
39 45 
39 46 
39 48 
39 54 
39 56 
39 58 
39 65 
39 72 
39 73 
39 74 
39 75 
39 76 
39 77 
39 78 
39 79 
39 85 
39 93 
39 96 
39 98 
39 109 
39 114 
40 41 
40 42 
40 43 
40 44 
40 45 
40 46 
40 49 
40 50 
40 57 
40 62 
40 66 
40 71 
40 79 
40 80 
40 81 
40 82 
40 83 
40 84 
40 85 
40 95 
40 99 
40 103 
40 107 
40 108 
40 109 
41 42 
41 43 
41 44 
41 45 
41 46 
41 47 
41 51 
41 57 
41 59 
41 68 
41 73 
41 74 
41 81 
41 91 
41 92 
41 93 
41 94 
41 100 
41 102 
41 107 
41 110 
41 111 
41 112 
42 43 
42 44 
42 45 
42 46 
42 49 
42 52 
42 61 
42 67 
42 69 
42 75 
42 77 
42 82 
42 86 
42 91 
42 95 
42 96 
42 97 
42 98 
42 102 
42 103 
42 104 
42 105 
43 44 
43 45 
43 46 
43 51 
43 53 
43 56 
43 60 
43 66 
43 76 
43 80 
43 87 
43 93 
43 97 
43 98 
43 99 
43 100 
43 101 
43 105 
43 106 
43 108 
43 117 
44 45 
44 46 
44 55 
44 60 
44 62 
44 70 
44 75 
44 78 
44 83 
44 84 
44 87 
44 88 
44 92 
44 94 
44 95 
44 102 
44 106 
44 110 
44 114 
44 117 
45 46 
45 48 
45 52 
45 61 
45 64 
45 70 
45 76 
45 81 
45 89 
45 90 
45 91 
45 106 
45 107 
45 109 
45 112 
45 113 
45 114 
45 115 
45 116 
45 117 
46 53 
46 59 
46 63 
46 68 
46 69 
46 78 
46 79 
46 84 
46 89 
46 90 
46 96 
46 99 
46 104 
46 105 
46 110 
46 111 
46 113 
46 116 
47 48 
47 49 
47 50 
47 51 
47 52 
47 53 
47 54 
47 55 
47 57 
47 65 
47 66 
47 67 
47 68 
47 69 
47 70 
47 71 
47 72 
47 73 
47 100 
47 102 
47 107 
47 110 
47 111 
47 112 
48 49 
48 50 
48 51 
48 52 
48 53 
48 54 
48 55 
48 56 
48 64 
48 65 
48 70 
48 73 
48 74 
48 75 
48 76 
48 77 
48 78 
48 79 
48 90 
48 91 
48 109 
48 112 
48 116 
48 117 
49 50 
49 51 
49 52 
49 53 
49 54 
49 55 
49 57 
49 61 
49 66 
49 67 
49 77 
49 80 
49 81 
49 82 
49 83 
49 84 
49 85 
49 98 
49 102 
49 103 
49 104 
49 105 
50 51 
50 52 
50 53 
50 54 
50 55 
50 58 
50 62 
50 67 
50 71 
50 73 
50 79 
50 80 
50 86 
50 87 
50 88 
50 89 
50 90 
50 95 
50 99 
50 103 
50 107 
50 108 
50 109 
51 52 
51 53 
51 54 
51 55 
51 59 
51 60 
51 66 
51 68 
51 74 
51 76 
51 81 
51 87 
51 91 
51 92 
51 93 
51 94 
51 98 
51 99 
51 100 
51 101 
52 53 
52 54 
52 55 
52 61 
52 69 
52 75 
52 76 
52 81 
52 82 
52 86 
52 89 
52 91 
52 95 
52 96 
52 97 
52 106 
52 107 
52 113 
52 114 
52 115 
53 54 
53 55 
53 56 
53 63 
53 68 
53 79 
53 80 
53 89 
53 93 
53 96 
53 97 
53 104 
53 105 
53 106 
53 108 
53 110 
53 116 
53 117 
54 55 
54 58 
54 63 
54 65 
54 72 
54 82 
54 85 
54 88 
54 93 
54 94 
54 96 
54 98 
54 101 
54 103 
54 109 
54 112 
54 113 
54 114 
55 62 
55 64 
55 72 
55 74 
55 75 
55 83 
55 84 
55 86 
55 87 
55 94 
55 100 
55 104 
55 108 
55 110 
55 114 
55 115 
55 117 
56 57 
56 58 
56 59 
56 60 
56 61 
56 62 
56 63 
56 64 
56 65 
56 73 
56 74 
56 75 
56 76 
56 77 
56 78 
56 79 
56 80 
56 93 
56 97 
56 105 
56 106 
56 108 
56 117 
57 58 
57 59 
57 60 
57 61 
57 62 
57 63 
57 64 
57 66 
57 73 
57 80 
57 81 
57 82 
57 83 
57 84 
57 85 
57 100 
57 102 
57 107 
57 110 
57 111 
57 112 
58 59 
58 60 
58 61 
58 62 
58 63 
58 64 
58 67 
58 72 
58 73 
58 80 
58 85 
58 86 
58 87 
58 88 
58 89 
58 90 
58 93 
58 96 
58 98 
58 109 
58 114 
59 60 
59 61 
59 62 
59 63 
59 64 
59 68 
59 69 
59 74 
59 78 
59 81 
59 84 
59 90 
59 91 
59 92 
59 93 
59 94 
59 99 
59 105 
59 111 
59 113 
60 61 
60 62 
60 63 
60 64 
60 66 
60 70 
60 76 
60 78 
60 83 
60 87 
60 88 
60 92 
60 95 
60 98 
60 99 
60 100 
60 101 
60 102 
60 106 
61 62 
61 63 
61 64 
61 67 
61 76 
61 77 
61 81 
61 89 
61 98 
61 102 
61 103 
61 104 
61 105 
61 106 
61 107 
61 113 
61 114 
61 115 
62 63 
62 64 
62 71 
62 75 
62 79 
62 84 
62 87 
62 94 
62 95 
62 99 
62 103 
62 107 
62 108 
62 109 
62 110 
62 114 
62 117 
63 64 
63 65 
63 68 
63 79 
63 82 
63 88 
63 89 
63 94 
63 96 
63 101 
63 103 
63 104 
63 110 
63 112 
63 113 
63 116 
64 70 
64 72 
64 74 
64 83 
64 86 
64 90 
64 91 
64 100 
64 104 
64 108 
64 109 
64 112 
64 115 
64 116 
64 117 
65 66 
65 67 
65 68 
65 69 
65 70 
65 71 
65 72 
65 73 
65 74 
65 75 
65 76 
65 77 
65 78 
65 79 
65 82 
65 88 
65 94 
65 101 
65 103 
65 112 
65 113 
66 67 
66 68 
66 69 
66 70 
66 71 
66 72 
66 76 
66 80 
66 81 
66 82 
66 83 
66 84 
66 85 
66 87 
66 98 
66 99 
66 100 
66 101 
67 68 
67 69 
67 70 
67 71 
67 72 
67 73 
67 77 
67 80 
67 86 
67 87 
67 88 
67 89 
67 90 
67 98 
67 102 
67 103 
67 104 
67 105 
68 69 
68 70 
68 71 
68 72 
68 74 
68 79 
68 81 
68 89 
68 91 
68 92 
68 93 
68 94 
68 96 
68 104 
68 110 
68 116 
69 70 
69 71 
69 72 
69 75 
69 78 
69 82 
69 84 
69 86 
69 90 
69 91 
69 95 
69 96 
69 97 
69 99 
69 105 
69 111 
69 113 
70 71 
70 72 
70 78 
70 83 
70 88 
70 90 
70 91 
70 92 
70 95 
70 102 
70 106 
70 109 
70 112 
70 116 
70 117 
71 72 
71 77 
71 79 
71 85 
71 92 
71 95 
71 97 
71 99 
71 101 
71 103 
71 107 
71 108 
71 109 
71 111 
71 115 
71 116 
72 74 
72 83 
72 85 
72 86 
72 93 
72 96 
72 98 
72 100 
72 104 
72 108 
72 109 
72 114 
72 115 
73 74 
73 75 
73 76 
73 77 
73 78 
73 79 
73 80 
73 86 
73 87 
73 88 
73 89 
73 90 
73 100 
73 102 
73 107 
73 110 
73 111 
73 112 
74 75 
74 76 
74 77 
74 78 
74 79 
74 81 
74 83 
74 86 
74 91 
74 92 
74 93 
74 94 
74 100 
74 104 
74 108 
74 115 
75 76 
75 77 
75 78 
75 79 
75 82 
75 84 
75 86 
75 87 
75 91 
75 94 
75 95 
75 96 
75 97 
75 110 
75 114 
75 117 
76 77 
76 78 
76 79 
76 81 
76 87 
76 89 
76 98 
76 99 
76 100 
76 101 
76 106 
76 107 
76 113 
76 114 
76 115 
77 78 
77 79 
77 85 
77 92 
77 97 
77 98 
77 101 
77 102 
77 103 
77 104 
77 105 
77 111 
77 115 
77 116 
78 79 
78 83 
78 84 
78 88 
78 90 
78 92 
78 95 
78 99 
78 102 
78 105 
78 106 
78 111 
78 113 
79 89 
79 95 
79 96 
79 99 
79 103 
79 104 
79 107 
79 108 
79 109 
79 110 
79 116 
80 81 
80 82 
80 83 
80 84 
80 85 
80 86 
80 87 
80 88 
80 89 
80 90 
80 93 
80 97 
80 105 
80 106 
80 108 
80 117 
81 82 
81 83 
81 84 
81 85 
81 89 
81 91 
81 92 
81 93 
81 94 
81 106 
81 107 
81 113 
81 114 
81 115 
82 83 
82 84 
82 85 
82 86 
82 88 
82 91 
82 94 
82 95 
82 96 
82 97 
82 101 
82 103 
82 112 
82 113 
83 84 
83 85 
83 86 
83 88 
83 92 
83 95 
83 100 
83 102 
83 104 
83 106 
83 108 
83 115 
84 85 
84 87 
84 90 
84 94 
84 99 
84 105 
84 110 
84 111 
84 113 
84 114 
84 117 
85 92 
85 93 
85 96 
85 97 
85 98 
85 101 
85 109 
85 111 
85 114 
85 115 
85 116 
86 87 
86 88 
86 89 
86 90 
86 91 
86 95 
86 96 
86 97 
86 100 
86 104 
86 108 
86 115 
87 88 
87 89 
87 90 
87 94 
87 98 
87 99 
87 100 
87 101 
87 110 
87 114 
87 117 
88 89 
88 90 
88 92 
88 94 
88 95 
88 101 
88 102 
88 103 
88 106 
88 112 
88 113 
89 90 
89 96 
89 104 
89 106 
89 107 
89 110 
89 113 
89 114 
89 115 
89 116 
90 91 
90 99 
90 105 
90 109 
90 111 
90 112 
90 113 
90 116 
90 117 
91 92 
91 93 
91 94 
91 95 
91 96 
91 97 
91 109 
91 112 
91 116 
91 117 
92 93 
92 94 
92 95 
92 97 
92 101 
92 102 
92 106 
92 111 
92 115 
92 116 
93 94 
93 96 
93 97 
93 98 
93 105 
93 106 
93 108 
93 109 
93 114 
93 117 
94 101 
94 103 
94 110 
94 112 
94 113 
94 114 
94 117 
95 96 
95 97 
95 99 
95 102 
95 103 
95 106 
95 107 
95 108 
95 109 
96 97 
96 98 
96 104 
96 109 
96 110 
96 114 
96 116 
97 101 
97 105 
97 106 
97 108 
97 111 
97 115 
97 116 
97 117 
98 99 
98 100 
98 101 
98 102 
98 103 
98 104 
98 105 
98 109 
98 114 
99 100 
99 101 
99 103 
99 105 
99 107 
99 108 
99 109 
99 111 
99 113 
100 101 
100 102 
100 104 
100 107 
100 108 
100 110 
100 111 
100 112 
100 115 
101 103 
101 111 
101 112 
101 113 
101 115 
101 116 
102 103 
102 104 
102 105 
102 106 
102 107 
102 110 
102 111 
102 112 
103 104 
103 105 
103 107 
103 108 
103 109 
103 112 
103 113 
104 105 
104 108 
104 110 
104 115 
104 116 
105 106 
105 108 
105 111 
105 113 
105 117 
106 107 
106 108 
106 113 
106 114 
106 115 
106 117 
107 108 
107 109 
107 110 
107 111 
107 112 
107 113 
107 114 
107 115 
108 109 
108 115 
108 117 
109 112 
109 114 
109 116 
109 117 
110 111 
110 112 
110 114 
110 116 
110 117 
111 112 
111 113 
111 115 
111 116 
112 113 
112 116 
112 117 
113 114 
113 115 
114 115 
114 117 
115 116 
116 117 
